certificates/rado_a18_c14_N101.cnf
c Rad2 upper bound instance: x1 + 18*x2 - x3 = 14, interval [1,101]
p cnf 101 624
1 5 0
-1 -5 0
1 2 23 0
-1 -2 -23 0
1 3 41 0
-1 -3 -41 0
1 4 59 0
-1 -4 -59 0
1 5 77 0
-1 -5 -77 0
1 6 95 0
-1 -6 -95 0
1 2 6 0
-1 -2 -6 0
2 24 0
-2 -24 0
2 3 42 0
-2 -3 -42 0
2 4 60 0
-2 -4 -60 0
2 5 78 0
-2 -5 -78 0
2 6 96 0
-2 -6 -96 0
1 3 7 0
-1 -3 -7 0
2 3 25 0
-2 -3 -25 0
3 43 0
-3 -43 0
3 4 61 0
-3 -4 -61 0
3 5 79 0
-3 -5 -79 0
3 6 97 0
-3 -6 -97 0
1 4 8 0
-1 -4 -8 0
2 4 26 0
-2 -4 -26 0
3 4 44 0
-3 -4 -44 0
4 62 0
-4 -62 0
4 5 80 0
-4 -5 -80 0
4 6 98 0
-4 -6 -98 0
1 5 9 0
-1 -5 -9 0
2 5 27 0
-2 -5 -27 0
3 5 45 0
-3 -5 -45 0
4 5 63 0
-4 -5 -63 0
5 81 0
-5 -81 0
5 6 99 0
-5 -6 -99 0
1 6 10 0
-1 -6 -10 0
2 6 28 0
-2 -6 -28 0
3 6 46 0
-3 -6 -46 0
4 6 64 0
-4 -6 -64 0
5 6 82 0
-5 -6 -82 0
6 100 0
-6 -100 0
1 7 11 0
-1 -7 -11 0
2 7 29 0
-2 -7 -29 0
3 7 47 0
-3 -7 -47 0
4 7 65 0
-4 -7 -65 0
5 7 83 0
-5 -7 -83 0
6 7 101 0
-6 -7 -101 0
1 8 12 0
-1 -8 -12 0
2 8 30 0
-2 -8 -30 0
3 8 48 0
-3 -8 -48 0
4 8 66 0
-4 -8 -66 0
5 8 84 0
-5 -8 -84 0
1 9 13 0
-1 -9 -13 0
2 9 31 0
-2 -9 -31 0
3 9 49 0
-3 -9 -49 0
4 9 67 0
-4 -9 -67 0
5 9 85 0
-5 -9 -85 0
1 10 14 0
-1 -10 -14 0
2 10 32 0
-2 -10 -32 0
3 10 50 0
-3 -10 -50 0
4 10 68 0
-4 -10 -68 0
5 10 86 0
-5 -10 -86 0
1 11 15 0
-1 -11 -15 0
2 11 33 0
-2 -11 -33 0
3 11 51 0
-3 -11 -51 0
4 11 69 0
-4 -11 -69 0
5 11 87 0
-5 -11 -87 0
1 12 16 0
-1 -12 -16 0
2 12 34 0
-2 -12 -34 0
3 12 52 0
-3 -12 -52 0
4 12 70 0
-4 -12 -70 0
5 12 88 0
-5 -12 -88 0
1 13 17 0
-1 -13 -17 0
2 13 35 0
-2 -13 -35 0
3 13 53 0
-3 -13 -53 0
4 13 71 0
-4 -13 -71 0
5 13 89 0
-5 -13 -89 0
1 14 18 0
-1 -14 -18 0
2 14 36 0
-2 -14 -36 0
3 14 54 0
-3 -14 -54 0
4 14 72 0
-4 -14 -72 0
5 14 90 0
-5 -14 -90 0
1 15 19 0
-1 -15 -19 0
2 15 37 0
-2 -15 -37 0
3 15 55 0
-3 -15 -55 0
4 15 73 0
-4 -15 -73 0
5 15 91 0
-5 -15 -91 0
1 16 20 0
-1 -16 -20 0
2 16 38 0
-2 -16 -38 0
3 16 56 0
-3 -16 -56 0
4 16 74 0
-4 -16 -74 0
5 16 92 0
-5 -16 -92 0
1 17 21 0
-1 -17 -21 0
2 17 39 0
-2 -17 -39 0
3 17 57 0
-3 -17 -57 0
4 17 75 0
-4 -17 -75 0
5 17 93 0
-5 -17 -93 0
1 18 22 0
-1 -18 -22 0
2 18 40 0
-2 -18 -40 0
3 18 58 0
-3 -18 -58 0
4 18 76 0
-4 -18 -76 0
5 18 94 0
-5 -18 -94 0
1 19 23 0
-1 -19 -23 0
2 19 41 0
-2 -19 -41 0
3 19 59 0
-3 -19 -59 0
4 19 77 0
-4 -19 -77 0
5 19 95 0
-5 -19 -95 0
1 20 24 0
-1 -20 -24 0
2 20 42 0
-2 -20 -42 0
3 20 60 0
-3 -20 -60 0
4 20 78 0
-4 -20 -78 0
5 20 96 0
-5 -20 -96 0
1 21 25 0
-1 -21 -25 0
2 21 43 0
-2 -21 -43 0
3 21 61 0
-3 -21 -61 0
4 21 79 0
-4 -21 -79 0
5 21 97 0
-5 -21 -97 0
1 22 26 0
-1 -22 -26 0
2 22 44 0
-2 -22 -44 0
3 22 62 0
-3 -22 -62 0
4 22 80 0
-4 -22 -80 0
5 22 98 0
-5 -22 -98 0
1 23 27 0
-1 -23 -27 0
2 23 45 0
-2 -23 -45 0
3 23 63 0
-3 -23 -63 0
4 23 81 0
-4 -23 -81 0
5 23 99 0
-5 -23 -99 0
1 24 28 0
-1 -24 -28 0
2 24 46 0
-2 -24 -46 0
3 24 64 0
-3 -24 -64 0
4 24 82 0
-4 -24 -82 0
5 24 100 0
-5 -24 -100 0
1 25 29 0
-1 -25 -29 0
2 25 47 0
-2 -25 -47 0
3 25 65 0
-3 -25 -65 0
4 25 83 0
-4 -25 -83 0
5 25 101 0
-5 -25 -101 0
1 26 30 0
-1 -26 -30 0
2 26 48 0
-2 -26 -48 0
3 26 66 0
-3 -26 -66 0
4 26 84 0
-4 -26 -84 0
1 27 31 0
-1 -27 -31 0
2 27 49 0
-2 -27 -49 0
3 27 67 0
-3 -27 -67 0
4 27 85 0
-4 -27 -85 0
1 28 32 0
-1 -28 -32 0
2 28 50 0
-2 -28 -50 0
3 28 68 0
-3 -28 -68 0
4 28 86 0
-4 -28 -86 0
1 29 33 0
-1 -29 -33 0
2 29 51 0
-2 -29 -51 0
3 29 69 0
-3 -29 -69 0
4 29 87 0
-4 -29 -87 0
1 30 34 0
-1 -30 -34 0
2 30 52 0
-2 -30 -52 0
3 30 70 0
-3 -30 -70 0
4 30 88 0
-4 -30 -88 0
1 31 35 0
-1 -31 -35 0
2 31 53 0
-2 -31 -53 0
3 31 71 0
-3 -31 -71 0
4 31 89 0
-4 -31 -89 0
1 32 36 0
-1 -32 -36 0
2 32 54 0
-2 -32 -54 0
3 32 72 0
-3 -32 -72 0
4 32 90 0
-4 -32 -90 0
1 33 37 0
-1 -33 -37 0
2 33 55 0
-2 -33 -55 0
3 33 73 0
-3 -33 -73 0
4 33 91 0
-4 -33 -91 0
1 34 38 0
-1 -34 -38 0
2 34 56 0
-2 -34 -56 0
3 34 74 0
-3 -34 -74 0
4 34 92 0
-4 -34 -92 0
1 35 39 0
-1 -35 -39 0
2 35 57 0
-2 -35 -57 0
3 35 75 0
-3 -35 -75 0
4 35 93 0
-4 -35 -93 0
1 36 40 0
-1 -36 -40 0
2 36 58 0
-2 -36 -58 0
3 36 76 0
-3 -36 -76 0
4 36 94 0
-4 -36 -94 0
1 37 41 0
-1 -37 -41 0
2 37 59 0
-2 -37 -59 0
3 37 77 0
-3 -37 -77 0
4 37 95 0
-4 -37 -95 0
1 38 42 0
-1 -38 -42 0
2 38 60 0
-2 -38 -60 0
3 38 78 0
-3 -38 -78 0
4 38 96 0
-4 -38 -96 0
1 39 43 0
-1 -39 -43 0
2 39 61 0
-2 -39 -61 0
3 39 79 0
-3 -39 -79 0
4 39 97 0
-4 -39 -97 0
1 40 44 0
-1 -40 -44 0
2 40 62 0
-2 -40 -62 0
3 40 80 0
-3 -40 -80 0
4 40 98 0
-4 -40 -98 0
1 41 45 0
-1 -41 -45 0
2 41 63 0
-2 -41 -63 0
3 41 81 0
-3 -41 -81 0
4 41 99 0
-4 -41 -99 0
1 42 46 0
-1 -42 -46 0
2 42 64 0
-2 -42 -64 0
3 42 82 0
-3 -42 -82 0
4 42 100 0
-4 -42 -100 0
1 43 47 0
-1 -43 -47 0
2 43 65 0
-2 -43 -65 0
3 43 83 0
-3 -43 -83 0
4 43 101 0
-4 -43 -101 0
1 44 48 0
-1 -44 -48 0
2 44 66 0
-2 -44 -66 0
3 44 84 0
-3 -44 -84 0
1 45 49 0
-1 -45 -49 0
2 45 67 0
-2 -45 -67 0
3 45 85 0
-3 -45 -85 0
1 46 50 0
-1 -46 -50 0
2 46 68 0
-2 -46 -68 0
3 46 86 0
-3 -46 -86 0
1 47 51 0
-1 -47 -51 0
2 47 69 0
-2 -47 -69 0
3 47 87 0
-3 -47 -87 0
1 48 52 0
-1 -48 -52 0
2 48 70 0
-2 -48 -70 0
3 48 88 0
-3 -48 -88 0
1 49 53 0
-1 -49 -53 0
2 49 71 0
-2 -49 -71 0
3 49 89 0
-3 -49 -89 0
1 50 54 0
-1 -50 -54 0
2 50 72 0
-2 -50 -72 0
3 50 90 0
-3 -50 -90 0
1 51 55 0
-1 -51 -55 0
2 51 73 0
-2 -51 -73 0
3 51 91 0
-3 -51 -91 0
1 52 56 0
-1 -52 -56 0
2 52 74 0
-2 -52 -74 0
3 52 92 0
-3 -52 -92 0
1 53 57 0
-1 -53 -57 0
2 53 75 0
-2 -53 -75 0
3 53 93 0
-3 -53 -93 0
1 54 58 0
-1 -54 -58 0
2 54 76 0
-2 -54 -76 0
3 54 94 0
-3 -54 -94 0
1 55 59 0
-1 -55 -59 0
2 55 77 0
-2 -55 -77 0
3 55 95 0
-3 -55 -95 0
1 56 60 0
-1 -56 -60 0
2 56 78 0
-2 -56 -78 0
3 56 96 0
-3 -56 -96 0
1 57 61 0
-1 -57 -61 0
2 57 79 0
-2 -57 -79 0
3 57 97 0
-3 -57 -97 0
1 58 62 0
-1 -58 -62 0
2 58 80 0
-2 -58 -80 0
3 58 98 0
-3 -58 -98 0
1 59 63 0
-1 -59 -63 0
2 59 81 0
-2 -59 -81 0
3 59 99 0
-3 -59 -99 0
1 60 64 0
-1 -60 -64 0
2 60 82 0
-2 -60 -82 0
3 60 100 0
-3 -60 -100 0
1 61 65 0
-1 -61 -65 0
2 61 83 0
-2 -61 -83 0
3 61 101 0
-3 -61 -101 0
1 62 66 0
-1 -62 -66 0
2 62 84 0
-2 -62 -84 0
1 63 67 0
-1 -63 -67 0
2 63 85 0
-2 -63 -85 0
1 64 68 0
-1 -64 -68 0
2 64 86 0
-2 -64 -86 0
1 65 69 0
-1 -65 -69 0
2 65 87 0
-2 -65 -87 0
1 66 70 0
-1 -66 -70 0
2 66 88 0
-2 -66 -88 0
1 67 71 0
-1 -67 -71 0
2 67 89 0
-2 -67 -89 0
1 68 72 0
-1 -68 -72 0
2 68 90 0
-2 -68 -90 0
1 69 73 0
-1 -69 -73 0
2 69 91 0
-2 -69 -91 0
1 70 74 0
-1 -70 -74 0
2 70 92 0
-2 -70 -92 0
1 71 75 0
-1 -71 -75 0
2 71 93 0
-2 -71 -93 0
1 72 76 0
-1 -72 -76 0
2 72 94 0
-2 -72 -94 0
1 73 77 0
-1 -73 -77 0
2 73 95 0
-2 -73 -95 0
1 74 78 0
-1 -74 -78 0
2 74 96 0
-2 -74 -96 0
1 75 79 0
-1 -75 -79 0
2 75 97 0
-2 -75 -97 0
1 76 80 0
-1 -76 -80 0
2 76 98 0
-2 -76 -98 0
1 77 81 0
-1 -77 -81 0
2 77 99 0
-2 -77 -99 0
1 78 82 0
-1 -78 -82 0
2 78 100 0
-2 -78 -100 0
1 79 83 0
-1 -79 -83 0
2 79 101 0
-2 -79 -101 0
1 80 84 0
-1 -80 -84 0
1 81 85 0
-1 -81 -85 0
1 82 86 0
-1 -82 -86 0
1 83 87 0
-1 -83 -87 0
1 84 88 0
-1 -84 -88 0
1 85 89 0
-1 -85 -89 0
1 86 90 0
-1 -86 -90 0
1 87 91 0
-1 -87 -91 0
1 88 92 0
-1 -88 -92 0
1 89 93 0
-1 -89 -93 0
1 90 94 0
-1 -90 -94 0
1 91 95 0
-1 -91 -95 0
1 92 96 0
-1 -92 -96 0
1 93 97 0
-1 -93 -97 0
1 94 98 0
-1 -94 -98 0
1 95 99 0
-1 -95 -99 0
1 96 100 0
-1 -96 -100 0
1 97 101 0
-1 -97 -101 0
