certificates/rado_a18_c14_N101.drat
1 -99 6 0
-1 -101 0
-2 -101 0
-101 0
1 0
-5 0
81 0
25 0
-85 0
-77 0
-29 0
-21 0
9 0
97 0
-13 0
2 0
-31 0
-93 0
89 0
-23 0
-6 0
-24 0
-3 0
-47 0
-59 0
-75 0
71 0
17 0
53 0
-67 0
99 0
63 0
100 0
7 0
82 0
64 0
43 0
79 0
45 0
46 0
61 0
37 0
69 0
87 0
19 0
35 0
-49 0
-39 0
-57 0
27 0
-95 0
-41 0
-96 0
-78 0
-11 0
-86 0
-60 0
-68 0
-42 0
-65 0
-83 0
-50 0
-33 0
-15 0
-73 0
-91 0
55 0
20 0
56 0
38 0
51 0
10 0
28 0
90 0
0
